NAME: mona-lisa100K
COMMENT: TSP art (Bosch)
TYPE: TSP
DIMENSION: 100000
EDGE_WEIGHT_TYPE: EUC_2D
NODE_COORD_SECTION
Command terminated by signal 11
	Command being timed: "./Held-Karp_algorithm ./dataset/mona-lisa100K.tsp"
	User time (seconds): 0.03
	System time (seconds): 0.00
	Percent of CPU this job got: 86%
	Elapsed (wall clock) time (h:mm:ss or m:ss): 0:00.04
	Average shared text size (kbytes): 0
	Average unshared data size (kbytes): 0
	Average stack size (kbytes): 0
	Average total size (kbytes): 0
	Maximum resident set size (kbytes): 5612
	Average resident set size (kbytes): 0
	Major (requiring I/O) page faults: 26
	Minor (reclaiming a frame) page faults: 989
	Voluntary context switches: 22
	Involuntary context switches: 0
	Swaps: 0
	File system inputs: 7128
	File system outputs: 8
	Socket messages sent: 0
	Socket messages received: 0
	Signals delivered: 0
	Page size (bytes): 4096
	Exit status: 0
